(set-info :smt-lib-version 2.6)
(set-logic QF_S)
(set-info :source |
Generated by: Murphy Berzish, Mitja Kulczynski, Federico Mora, Florin Manea, Joel Day, Dirk Nowotka, Vijay Ganesh, Zhengyang Lu
Generated on: 2020-10-01
Description: Translated from a collection of real-world regex queries, AutomataArk, collected by Loris D’Antoni and Fang Wang: https://github.com/lorisdanto/automatark
Application: Evaluate solvers on real-world regex queries
Target solver: Z3str3RE, CVC4, OSTRICH, Z3seq, Z3str3, Z3-Trau
Publications: Berzish, M., Kulczynski, M., Mora, F., Manea, F., Day, J. D., Nowotka, D., & Ganesh, V. (2021, July). An SMT solver for regular expressions and linear arithmetic over string length. In CAV 2021.
|)
(set-info :license "https://creativecommons.org/licenses/by/4.0/")
(set-info :category "industrial")
(set-info :status unsat)

(declare-const X String)
(assert (not (str.in_re X (re.++ (str.to_re "/") ((_ re.loop 3 3) (re.union (re.range " " "~") (str.to_re "\u{d}") (str.to_re "\u{a}"))) (str.to_re "/P\u{a}")))))
(assert (str.in_re X (re.++ (str.to_re "/GET") (re.union (str.to_re " ") (str.to_re "\u{9}") (str.to_re "\u{a}") (str.to_re "\u{c}") (str.to_re "\u{d}")) (str.to_re "/") ((_ re.loop 152 152) (re.union (re.range "A" "F") (re.range "0" "9"))) (str.to_re "/m\u{a}"))))
(assert (str.in_re X (re.++ (str.to_re "/Content-Disposition: inline;") (re.union (str.to_re "\u{d}") (str.to_re "\u{a}")) (str.to_re "filename=") ((_ re.loop 5 8) (re.range "a" "z")) ((_ re.loop 2 3) (re.range "0" "9")) (str.to_re ".pdf\u{d}\u{a}/Hm\u{a}"))))
(assert (str.in_re X (re.++ (str.to_re "Host:") (re.+ (re.union (str.to_re " ") (str.to_re "\u{9}") (str.to_re "\u{a}") (str.to_re "\u{c}") (str.to_re "\u{d}"))) (str.to_re "Online") (re.+ (re.union (str.to_re " ") (str.to_re "\u{9}") (str.to_re "\u{a}") (str.to_re "\u{c}") (str.to_re "\u{d}"))) (str.to_re "ocllceclbhs/gth\u{a}"))))
(check-sat)

(exit)
